p cnf 194 846
100 105 108 0
62 103 121 180 0
99 106 132 0
85 90 101 114 0
111 185 0
93 95 123 0
88 117 129 191 0
82 134 135 0
92 126 139 0
79 80 113 151 0
75 76 153 0
86 122 0
58 69 70 73 97 130 0
66 68 0
57 60 61 0
56 137 0
102 110 0
64 94 115 124 0
87 187 189 0
141 145 146 0
78 147 149 152 0
154 155 156 0
59 71 96 98 0
72 157 160 0
107 161 162 0
91 163 166 0
55 116 119 168 169 0
83 170 171 0
172 175 177 178 0
127 179 0
77 109 0
63 74 104 120 0
138 159 181 0
165 167 182 184 0
65 186 0
89 125 188 0
118 190 192 0
136 174 176 0
128 140 143 194 0
81 148 0
-54 -67 0
-67 -99 0
-67 -164 0
-67 -90 0
-67 -111 0
-54 -99 0
-54 -164 0
-54 -90 0
-54 -111 0
-99 -164 0
-90 -99 0
-99 -111 0
-90 -164 0
-111 -164 0
-90 -111 0
-82 -126 0
-79 -82 0
-53 -82 0
-76 -82 0
-82 -86 0
-79 -126 0
-53 -126 0
-76 -126 0
-86 -126 0
-53 -79 0
-76 -79 0
-79 -86 0
-53 -76 0
-53 -86 0
-76 -86 0
-51 -52 0
-52 -60 0
-52 -137 0
-50 -52 0
-49 -52 0
-51 -60 0
-51 -137 0
-50 -51 0
-49 -51 0
-60 -137 0
-50 -60 0
-49 -60 0
-50 -137 0
-49 -137 0
-49 -50 0
-48 -187 0
-141 -187 0
-147 -187 0
-112 -187 0
-47 -187 0
-48 -141 0
-48 -147 0
-48 -112 0
-47 -48 0
-141 -147 0
-112 -141 0
-47 -141 0
-112 -147 0
-47 -147 0
-47 -112 0
-72 -163 0
-44 -72 0
-72 -119 0
-43 -72 0
-72 -170 0
-44 -163 0
-119 -163 0
-43 -163 0
-163 -170 0
-44 -119 0
-43 -44 0
-44 -170 0
-43 -119 0
-119 -170 0
-43 -170 0
-42 -109 0
-41 -42 0
-42 -104 0
-42 -181 0
-40 -42 0
-41 -109 0
-104 -109 0
-109 -181 0
-40 -109 0
-41 -104 0
-41 -181 0
-40 -41 0
-104 -181 0
-40 -104 0
-40 -181 0
-67 -82 0
-52 -67 0
-67 -187 0
-67 -72 0
-42 -67 0
-52 -82 0
-82 -187 0
-72 -82 0
-42 -82 0
-52 -187 0
-52 -72 0
-42 -52 0
-72 -187 0
-42 -187 0
-42 -72 0
-54 -126 0
-51 -54 0
-48 -54 0
-54 -163 0
-54 -109 0
-51 -126 0
-48 -126 0
-126 -163 0
-109 -126 0
-48 -51 0
-51 -163 0
-51 -109 0
-48 -163 0
-48 -109 0
-109 -163 0
-79 -99 0
-60 -99 0
-99 -141 0
-44 -99 0
-41 -99 0
-60 -79 0
-79 -141 0
-44 -79 0
-41 -79 0
-60 -141 0
-44 -60 0
-41 -60 0
-44 -141 0
-41 -141 0
-41 -44 0
-53 -164 0
-137 -164 0
-147 -164 0
-119 -164 0
-104 -164 0
-53 -137 0
-53 -147 0
-53 -119 0
-53 -104 0
-137 -147 0
-119 -137 0
-104 -137 0
-119 -147 0
-104 -147 0
-104 -119 0
-76 -90 0
-50 -90 0
-90 -112 0
-43 -90 0
-90 -181 0
-50 -76 0
-76 -112 0
-43 -76 0
-76 -181 0
-50 -112 0
-43 -50 0
-50 -181 0
-43 -112 0
-112 -181 0
-43 -181 0
-86 -111 0
-49 -111 0
-47 -111 0
-111 -170 0
-40 -111 0
-49 -86 0
-47 -86 0
-86 -170 0
-40 -86 0
-47 -49 0
-49 -170 0
-40 -49 0
-47 -170 0
-40 -47 0
-40 -170 0
-97 -135 0
-39 -165 0
-39 -135 0
-97 -165 0
-121 -132 0
-121 -183 0
-85 -121 0
-93 -121 0
-132 -183 0
-85 -132 0
-93 -132 0
-85 -183 0
-93 -183 0
-85 -93 0
-151 -193 0
-38 -193 0
-75 -193 0
-70 -193 0
-38 -151 0
-75 -151 0
-70 -151 0
-38 -75 0
-38 -70 0
-70 -75 0
-35 -107 0
-107 -168 0
-34 -107 0
-107 -172 0
-35 -168 0
-34 -35 0
-35 -172 0
-34 -168 0
-168 -172 0
-34 -172 0
-32 -33 0
-33 -63 0
-33 -138 0
-33 -182 0
-32 -63 0
-32 -138 0
-32 -182 0
-63 -138 0
-63 -182 0
-138 -182 0
-125 -136 0
-125 -143 0
-125 -148 0
-31 -125 0
-136 -143 0
-136 -148 0
-31 -136 0
-143 -148 0
-31 -143 0
-31 -148 0
-121 -193 0
-107 -121 0
-33 -121 0
-121 -125 0
-107 -193 0
-33 -193 0
-125 -193 0
-33 -107 0
-107 -125 0
-33 -125 0
-132 -151 0
-35 -132 0
-32 -132 0
-132 -136 0
-35 -151 0
-32 -151 0
-136 -151 0
-32 -35 0
-35 -136 0
-32 -136 0
-38 -183 0
-168 -183 0
-63 -183 0
-143 -183 0
-38 -168 0
-38 -63 0
-38 -143 0
-63 -168 0
-143 -168 0
-63 -143 0
-75 -85 0
-34 -85 0
-85 -138 0
-85 -148 0
-34 -75 0
-75 -138 0
-75 -148 0
-34 -138 0
-34 -148 0
-138 -148 0
-70 -93 0
-93 -172 0
-93 -182 0
-31 -93 0
-70 -172 0
-70 -182 0
-31 -70 0
-172 -182 0
-31 -172 0
-31 -182 0
-88 -139 0
-80 -88 0
-30 -88 0
-88 -122 0
-88 -130 0
-80 -139 0
-30 -139 0
-122 -139 0
-130 -139 0
-30 -80 0
-80 -122 0
-80 -130 0
-30 -122 0
-30 -130 0
-122 -130 0
-27 -28 0
-28 -61 0
-28 -56 0
-25 -28 0
-28 -102 0
-27 -61 0
-27 -56 0
-25 -27 0
-27 -102 0
-56 -61 0
-25 -61 0
-61 -102 0
-25 -56 0
-56 -102 0
-25 -102 0
-115 -133 0
-115 -145 0
-115 -149 0
-23 -115 0
-115 -154 0
-133 -145 0
-133 -149 0
-23 -133 0
-133 -154 0
-145 -149 0
-23 -145 0
-145 -154 0
-23 -149 0
-149 -154 0
-23 -154 0
-91 -98 0
-21 -98 0
-98 -169 0
-83 -98 0
-98 -175 0
-21 -91 0
-91 -169 0
-83 -91 0
-91 -175 0
-21 -169 0
-21 -83 0
-21 -175 0
-83 -169 0
-169 -175 0
-83 -175 0
-77 -127 0
-20 -127 0
-120 -127 0
-127 -131 0
-127 -184 0
-20 -77 0
-77 -120 0
-77 -131 0
-77 -184 0
-20 -120 0
-20 -131 0
-20 -184 0
-120 -131 0
-120 -184 0
-131 -184 0
-84 -190 0
-84 -174 0
-84 -194 0
-84 -150 0
-37 -84 0
-174 -190 0
-190 -194 0
-150 -190 0
-37 -190 0
-174 -194 0
-150 -174 0
-37 -174 0
-150 -194 0
-37 -194 0
-37 -150 0
-28 -88 0
-88 -115 0
-88 -98 0
-88 -127 0
-84 -88 0
-28 -115 0
-28 -98 0
-28 -127 0
-28 -84 0
-98 -115 0
-115 -127 0
-84 -115 0
-98 -127 0
-84 -98 0
-84 -127 0
-27 -139 0
-133 -139 0
-91 -139 0
-77 -139 0
-139 -190 0
-27 -133 0
-27 -91 0
-27 -77 0
-27 -190 0
-91 -133 0
-77 -133 0
-133 -190 0
-77 -91 0
-91 -190 0
-77 -190 0
-61 -80 0
-80 -145 0
-21 -80 0
-20 -80 0
-80 -174 0
-61 -145 0
-21 -61 0
-20 -61 0
-61 -174 0
-21 -145 0
-20 -145 0
-145 -174 0
-20 -21 0
-21 -174 0
-20 -174 0
-30 -56 0
-30 -149 0
-30 -169 0
-30 -120 0
-30 -194 0
-56 -149 0
-56 -169 0
-56 -120 0
-56 -194 0
-149 -169 0
-120 -149 0
-149 -194 0
-120 -169 0
-169 -194 0
-120 -194 0
-25 -122 0
-23 -122 0
-83 -122 0
-122 -131 0
-122 -150 0
-23 -25 0
-25 -83 0
-25 -131 0
-25 -150 0
-23 -83 0
-23 -131 0
-23 -150 0
-83 -131 0
-83 -150 0
-131 -150 0
-102 -130 0
-130 -154 0
-130 -175 0
-130 -184 0
-37 -130 0
-102 -154 0
-102 -175 0
-102 -184 0
-37 -102 0
-154 -175 0
-154 -184 0
-37 -154 0
-175 -184 0
-37 -175 0
-37 -184 0
-113 -117 0
-46 -117 0
-73 -117 0
-46 -113 0
-73 -113 0
-46 -73 0
-64 -146 0
-64 -78 0
-64 -155 0
-78 -146 0
-146 -155 0
-78 -155 0
-19 -59 0
-59 -116 0
-59 -177 0
-19 -116 0
-19 -177 0
-116 -177 0
-18 -176 0
-18 -128 0
-18 -29 0
-128 -176 0
-29 -176 0
-29 -128 0
-64 -117 0
-59 -117 0
-18 -117 0
-59 -64 0
-18 -64 0
-18 -59 0
-113 -146 0
-19 -113 0
-113 -176 0
-19 -146 0
-146 -176 0
-19 -176 0
-46 -78 0
-46 -116 0
-46 -128 0
-78 -116 0
-78 -128 0
-116 -128 0
-73 -155 0
-73 -177 0
-29 -73 0
-155 -177 0
-29 -155 0
-29 -177 0
-103 -108 0
-17 -108 0
-95 -108 0
-17 -103 0
-95 -103 0
-17 -95 0
-16 -191 0
-92 -191 0
-69 -191 0
-16 -92 0
-16 -69 0
-69 -92 0
-15 -68 0
-14 -15 0
-15 -110 0
-14 -68 0
-68 -110 0
-14 -110 0
-13 -188 0
-13 -118 0
-13 -45 0
-118 -188 0
-45 -188 0
-45 -118 0
-108 -191 0
-15 -108 0
-13 -108 0
-15 -191 0
-13 -191 0
-13 -15 0
-16 -103 0
-68 -103 0
-103 -188 0
-16 -68 0
-16 -188 0
-68 -188 0
-17 -92 0
-14 -17 0
-17 -118 0
-14 -92 0
-92 -118 0
-14 -118 0
-69 -95 0
-95 -110 0
-45 -95 0
-69 -110 0
-45 -69 0
-45 -110 0
-12 -105 0
-105 -158 0
-105 -185 0
-12 -158 0
-12 -185 0
-158 -185 0
-87 -124 0
-124 -142 0
-11 -124 0
-87 -142 0
-11 -87 0
-11 -142 0
-96 -157 0
-96 -166 0
-96 -171 0
-157 -166 0
-157 -171 0
-166 -171 0
-10 -65 0
-10 -192 0
-9 -10 0
-65 -192 0
-9 -65 0
-9 -192 0
-105 -124 0
-96 -105 0
-10 -105 0
-96 -124 0
-10 -124 0
-10 -96 0
-12 -87 0
-12 -157 0
-12 -65 0
-87 -157 0
-65 -87 0
-65 -157 0
-142 -158 0
-158 -166 0
-158 -192 0
-142 -166 0
-142 -192 0
-166 -192 0
-11 -185 0
-171 -185 0
-9 -185 0
-11 -171 0
-9 -11 0
-9 -171 0
-26 -100 0
-62 -100 0
-24 -100 0
-100 -101 0
-100 -123 0
-26 -62 0
-24 -26 0
-26 -101 0
-26 -123 0
-24 -62 0
-62 -101 0
-62 -123 0
-24 -101 0
-24 -123 0
-101 -123 0
-129 -134 0
-129 -144 0
-22 -129 0
-129 -153 0
-58 -129 0
-134 -144 0
-22 -134 0
-134 -153 0
-58 -134 0
-22 -144 0
-144 -153 0
-58 -144 0
-22 -153 0
-22 -58 0
-58 -153 0
-94 -189 0
-94 -173 0
-94 -152 0
-36 -94 0
-94 -156 0
-173 -189 0
-152 -189 0
-36 -189 0
-156 -189 0
-152 -173 0
-36 -173 0
-156 -173 0
-36 -152 0
-152 -156 0
-36 -156 0
-71 -160 0
-71 -161 0
-55 -71 0
-8 -71 0
-71 -178 0
-160 -161 0
-55 -160 0
-8 -160 0
-160 -178 0
-55 -161 0
-8 -161 0
-161 -178 0
-8 -55 0
-55 -178 0
-8 -178 0
-7 -179 0
-6 -179 0
-74 -179 0
-159 -179 0
-167 -179 0
-6 -7 0
-7 -74 0
-7 -159 0
-7 -167 0
-6 -74 0
-6 -159 0
-6 -167 0
-74 -159 0
-74 -167 0
-159 -167 0
-5 -186 0
-5 -89 0
-5 -140 0
-5 -81 0
-4 -5 0
-89 -186 0
-140 -186 0
-81 -186 0
-4 -186 0
-89 -140 0
-81 -89 0
-4 -89 0
-81 -140 0
-4 -140 0
-4 -81 0
-100 -129 0
-94 -100 0
-71 -100 0
-100 -179 0
-5 -100 0
-94 -129 0
-71 -129 0
-129 -179 0
-5 -129 0
-71 -94 0
-94 -179 0
-5 -94 0
-71 -179 0
-5 -71 0
-5 -179 0
-26 -134 0
-26 -189 0
-26 -160 0
-7 -26 0
-26 -186 0
-134 -189 0
-134 -160 0
-7 -134 0
-134 -186 0
-160 -189 0
-7 -189 0
-186 -189 0
-7 -160 0
-160 -186 0
-7 -186 0
-62 -144 0
-62 -173 0
-62 -161 0
-6 -62 0
-62 -89 0
-144 -173 0
-144 -161 0
-6 -144 0
-89 -144 0
-161 -173 0
-6 -173 0
-89 -173 0
-6 -161 0
-89 -161 0
-6 -89 0
-22 -24 0
-24 -152 0
-24 -55 0
-24 -74 0
-24 -140 0
-22 -152 0
-22 -55 0
-22 -74 0
-22 -140 0
-55 -152 0
-74 -152 0
-140 -152 0
-55 -74 0
-55 -140 0
-74 -140 0
-101 -153 0
-36 -101 0
-8 -101 0
-101 -159 0
-81 -101 0
-36 -153 0
-8 -153 0
-153 -159 0
-81 -153 0
-8 -36 0
-36 -159 0
-36 -81 0
-8 -159 0
-8 -81 0
-81 -159 0
-58 -123 0
-123 -156 0
-123 -178 0
-123 -167 0
-4 -123 0
-58 -156 0
-58 -178 0
-58 -167 0
-4 -58 0
-156 -178 0
-156 -167 0
-4 -156 0
-167 -178 0
-4 -178 0
-4 -167 0
-106 -180 0
-114 -180 0
-106 -114 0
-57 -66 0
-3 -66 0
-3 -57 0
-2 -162 0
-1 -162 0
-1 -2 0
-66 -180 0
-162 -180 0
-66 -162 0
-57 -106 0
-2 -106 0
-2 -57 0
-3 -114 0
-1 -114 0
-1 -3 0
